\ENCODING=ISO-8859-1
\Problem name: 

Minimize
 obj1: 3 L_1 + 4 L_2 + 2 L_3 + L_4 + L_5 + 4 L_6 + 2 L_7
Subject To
 c0:  x_0_1 + x_0_2 + x_0_3 + x_0_4 + x_0_5 + x_0_6 + x_0_7  = 1
 c1:  x_1_0 + x_1_2 + x_1_3 + x_1_4 + x_1_5 + x_1_6 + x_1_7  = 1
 c2:  x_2_0 + x_2_1 + x_2_3 + x_2_4 + x_2_5 + x_2_6 + x_2_7  = 1
 c3:  x_3_0 + x_3_1 + x_3_2 + x_3_4 + x_3_5 + x_3_6 + x_3_7  = 1
 c4:  x_4_0 + x_4_1 + x_4_2 + x_4_3 + x_4_5 + x_4_6 + x_4_7  = 1
 c5:  x_5_0 + x_5_1 + x_5_2 + x_5_3 + x_5_4 + x_5_6 + x_5_7  = 1
 c6:  x_6_0 + x_6_1 + x_6_2 + x_6_3 + x_6_4 + x_6_5 + x_6_7  = 1
 c7:  x_7_0 + x_7_1 + x_7_2 + x_7_3 + x_7_4 + x_7_5 + x_7_6  = 1
 c8:  x_1_0 + x_2_0 + x_3_0 + x_4_0 + x_5_0 + x_6_0 + x_7_0  = 1
 c9:  x_0_1 + x_2_1 + x_3_1 + x_4_1 + x_5_1 + x_6_1 + x_7_1  = 1
 c10: x_0_2 + x_1_2 + x_3_2 + x_4_2 + x_5_2 + x_6_2 + x_7_2  = 1
 c11: x_0_3 + x_1_3 + x_2_3 + x_4_3 + x_5_3 + x_6_3 + x_7_3  = 1
 c12: x_0_4 + x_1_4 + x_2_4 + x_3_4 + x_5_4 + x_6_4 + x_7_4  = 1
 c13: x_0_5 + x_1_5 + x_2_5 + x_3_5 + x_4_5 + x_6_5 + x_7_5  = 1
 c14: x_0_6 + x_1_6 + x_2_6 + x_3_6 + x_4_6 + x_5_6 + x_7_6  = 1
 c15: x_0_7 + x_1_7 + x_2_7 + x_3_7 + x_4_7 + x_5_7 + x_6_7  = 1
 c16: - R_1 + F_1  = 5
 c17: - R_2 + F_2  = 6
 c18: - R_3 + F_3  = 5
 c19: - R_4 + F_4  = 4
 c20: - R_5 + F_5  = 3
 c21: - R_6 + F_6  = 4
 c22: - R_7 + F_7  = 3
 c23: - L_1 + F_1 <= 20
 c24: - L_2 + F_2 <= 21
 c25: - L_3 + F_3 <= 15
 c26: - L_4 + F_4 <= 10
 c27: - L_5 + F_5 <= 8
 c28: - L_6 + F_6 <= 15
 c29: - L_7 + F_7 <= 22
 c30: R_1 - R_2 + 39 x_1_2 <= 34
 c31: R_1 - R_3 + 39 x_1_3 <= 34
 c32: R_1 - R_4 + 39 x_1_4 <= 34
 c33: R_1 - R_5 + 39 x_1_5 <= 34
 c34: R_1 - R_6 + 39 x_1_6 <= 34
 c35: R_1 - R_7 + 39 x_1_7 <= 34
 c36: - R_1 + R_2 + 39 x_2_1 <= 33
 c37: R_2 - R_3 + 39 x_2_3 <= 33
 c38: R_2 - R_4 + 39 x_2_4 <= 33
 c39: R_2 - R_5 + 39 x_2_5 <= 33
 c40: R_2 - R_6 + 39 x_2_6 <= 33
 c41: R_2 - R_7 + 39 x_2_7 <= 33
 c42: - R_1 + R_3 + 39 x_3_1 <= 34
 c43: - R_2 + R_3 + 39 x_3_2 <= 34
 c44: R_3 - R_4 + 39 x_3_4 <= 34
 c45: R_3 - R_5 + 39 x_3_5 <= 34
 c46: R_3 - R_6 + 39 x_3_6 <= 34
 c47: R_3 - R_7 + 39 x_3_7 <= 34
 c48: - R_1 + R_4 + 39 x_4_1 <= 35
 c49: - R_2 + R_4 + 39 x_4_2 <= 35
 c50: - R_3 + R_4 + 39 x_4_3 <= 35
 c51: R_4 - R_5 + 39 x_4_5 <= 35
 c52: R_4 - R_6 + 39 x_4_6 <= 35
 c53: R_4 - R_7 + 39 x_4_7 <= 35
 c54: - R_1 + R_5 + 39 x_5_1 <= 36
 c55: - R_2 + R_5 + 39 x_5_2 <= 36
 c56: - R_3 + R_5 + 39 x_5_3 <= 36
 c57: - R_4 + R_5 + 39 x_5_4 <= 36
 c58: R_5 - R_6 + 39 x_5_6 <= 36
 c59: R_5 - R_7 + 39 x_5_7 <= 36
 c60: - R_1 + R_6 + 39 x_6_1 <= 35
 c61: - R_2 + R_6 + 39 x_6_2 <= 35
 c62: - R_3 + R_6 + 39 x_6_3 <= 35
 c63: - R_4 + R_6 + 39 x_6_4 <= 35
 c64: - R_5 + R_6 + 39 x_6_5 <= 35
 c65: R_6 - R_7 + 39 x_6_7 <= 35
 c66: - R_1 + R_7 + 39 x_7_1 <= 36
 c67: - R_2 + R_7 + 39 x_7_2 <= 36
 c68: - R_3 + R_7 + 39 x_7_3 <= 36
 c69: - R_4 + R_7 + 39 x_7_4 <= 36
 c70: - R_5 + R_7 + 39 x_7_5 <= 36
 c71: - R_6 + R_7 + 39 x_7_6 <= 36
Bounds
      L_1 >= 0
      L_2 >= 0
      L_3 >= 0
      L_4 >= 0
      L_5 >= 0
      L_6 >= 0
      L_7 >= 0
      R_1 >= 2
      R_2 >= 5
      R_3 >= 4
      R_4 >= 0
      R_5 >= 0
      R_6 >= 8
      R_7 >= 9
      F_1 >= 0
      F_2 >= 0
      F_3 >= 0
      F_4 >= 0
      F_5 >= 0
      F_6 >= 0
      F_7 >= 0
 0 <= x_0_1 <= 1
 0 <= x_0_2 <= 1
 0 <= x_0_3 <= 1
 0 <= x_0_4 <= 1
 0 <= x_0_5 <= 1
 0 <= x_0_6 <= 1
 0 <= x_0_7 <= 1
 0 <= x_1_0 <= 1
 0 <= x_1_2 <= 1
 0 <= x_1_3 <= 1
 0 <= x_1_4 <= 1
 0 <= x_1_5 <= 1
 0 <= x_1_6 <= 1
 0 <= x_1_7 <= 1
 0 <= x_2_0 <= 1
 0 <= x_2_1 <= 1
 0 <= x_2_3 <= 1
 0 <= x_2_4 <= 1
 0 <= x_2_5 <= 1
 0 <= x_2_6 <= 1
 0 <= x_2_7 <= 1
 0 <= x_3_0 <= 1
 0 <= x_3_1 <= 1
 0 <= x_3_2 <= 1
 0 <= x_3_4 <= 1
 0 <= x_3_5 <= 1
 0 <= x_3_6 <= 1
 0 <= x_3_7 <= 1
 0 <= x_4_0 <= 1
 0 <= x_4_1 <= 1
 0 <= x_4_2 <= 1
 0 <= x_4_3 <= 1
 0 <= x_4_5 <= 1
 0 <= x_4_6 <= 1
 0 <= x_4_7 <= 1
 0 <= x_5_0 <= 1
 0 <= x_5_1 <= 1
 0 <= x_5_2 <= 1
 0 <= x_5_3 <= 1
 0 <= x_5_4 <= 1
 0 <= x_5_6 <= 1
 0 <= x_5_7 <= 1
 0 <= x_6_0 <= 1
 0 <= x_6_1 <= 1
 0 <= x_6_2 <= 1
 0 <= x_6_3 <= 1
 0 <= x_6_4 <= 1
 0 <= x_6_5 <= 1
 0 <= x_6_7 <= 1
 0 <= x_7_0 <= 1
 0 <= x_7_1 <= 1
 0 <= x_7_2 <= 1
 0 <= x_7_3 <= 1
 0 <= x_7_4 <= 1
 0 <= x_7_5 <= 1
 0 <= x_7_6 <= 1
Generals
 L_1  L_2  L_3  L_4  L_5  L_6  L_7  R_1  R_2  R_3  R_4  R_5  R_6  R_7  F_1 
 F_2  F_3  F_4  F_5  F_6  F_7  x_0_1  x_0_2  x_0_3  x_0_4  x_0_5  x_0_6  x_0_7 
 x_1_0  x_1_2  x_1_3  x_1_4  x_1_5  x_1_6  x_1_7  x_2_0  x_2_1  x_2_3  x_2_4 
 x_2_5  x_2_6  x_2_7  x_3_0  x_3_1  x_3_2  x_3_4  x_3_5  x_3_6  x_3_7  x_4_0 
 x_4_1  x_4_2  x_4_3  x_4_5  x_4_6  x_4_7  x_5_0  x_5_1  x_5_2  x_5_3  x_5_4 
 x_5_6  x_5_7  x_6_0  x_6_1  x_6_2  x_6_3  x_6_4  x_6_5  x_6_7  x_7_0  x_7_1 
 x_7_2  x_7_3  x_7_4  x_7_5  x_7_6 
End
